60619
82,197,243,245,271,404,423,470,588,594,642,713,715,766,819,1067,1110,1267,1334,1528,1558,1617,1704,1899,1902,1970,1997,2528,2639,2662,2692,2701,2719,2753,2911,2956,2958,3045,3159,3253,3539,3579,3631,3953,3997,4061,4085,4148,4174,4361,4447,4702,4748,4895,4901,4911,4946,5144,5253,5269,5276,5335,5376,5411,5434,5713,5735,5800,5846,6066,6224,6562,6608,6749,6752,6802,6868,7109,7124,7128,7445,7452,7469,7621,7668,7765,7778,8251,8383,8475,8539,8595,8601,8738,8751,8759,8898,8924,8952,9074,9085,9262,9398,9441,9540,9674,9684,9688,9782,9939,9995
